21 50 37 46 27 39 10 34 22 1 13 38 49 41 32 9 20 1 24 36 30 16 11 18 2 1 44 5 29 19 6 51 40 8 1 53 17 7 35 47 42 48 26 1 33 14 23 4 54 45 1 31 12 28 3 15 43 25 52 1 21 50 37 46 27 39 10 34 22 1  (767)
Cost 1502.83

